cases/matpower/case30.m
ipopt
SOCW
[info | PowerModels]: removing 3 cost terms from generator 4: Float64[]
[info | PowerModels]: removing 1 cost terms from generator 1: [52.1378, 0.0]
[info | PowerModels]: removing 3 cost terms from generator 5: Float64[]
[info | PowerModels]: removing 1 cost terms from generator 2: [113.51659999999998, 0.0]
[info | PowerModels]: removing 3 cost terms from generator 6: Float64[]
[info | PowerModels]: removing 3 cost terms from generator 3: Float64[]

******************************************************************************
This program contains Ipopt, a library for large-scale nonlinear optimization.
 Ipopt is released as open source code under the Eclipse Public License (EPL).
         For more information visit http://projects.coin-or.org/Ipopt
******************************************************************************

This is Ipopt version 3.13.2, running with linear solver mumps.
NOTE: Other linear solvers might be more efficient (see Ipopt documentation).

Number of nonzeros in equality constraint Jacobian...:      788
Number of nonzeros in inequality constraint Jacobian.:      738
Number of nonzeros in Lagrangian Hessian.............:      287

Total number of variables............................:      284
                     variables with only lower bounds:        0
                variables with lower and upper bounds:      284
                     variables with only upper bounds:        0
Total number of equality constraints.................:      224
Total number of inequality constraints...............:      287
        inequality constraints with only lower bounds:      123
   inequality constraints with lower and upper bounds:        0
        inequality constraints with only upper bounds:      164

iter    objective    inf_pr   inf_du lg(mu)  ||d||  lg(rg) alpha_du alpha_pr  ls
   0  1.6565423e+00 9.42e-01 3.65e+01  -1.0 0.00e+00    -  0.00e+00 0.00e+00   0
   1  4.7632493e-01 9.26e-01 3.13e+01  -1.0 1.44e+00    -  8.30e-02 1.69e-02f  1
   2  3.6628687e-01 8.28e-01 1.44e+01  -1.0 1.17e+00    -  4.58e-01 1.06e-01h  1
   3  4.0569174e-01 7.59e-01 2.40e+01  -1.0 1.53e+00    -  1.79e-01 8.28e-02h  1
   4  5.0856727e-01 7.23e-01 9.00e+01  -1.0 2.34e+00    -  1.41e-01 4.75e-02h  1
   5  8.8013905e+00 6.71e-01 5.11e+01  -1.0 2.21e+00    -  4.85e-03 7.20e-02h  1
   6  3.8449368e+01 5.23e-01 1.87e+02  -1.0 2.57e+00    -  3.93e-01 2.21e-01h  1
   7  9.6149400e+01 2.67e-01 1.84e+01  -1.0 2.23e+00    -  2.83e-01 4.89e-01H  1
   8  1.2114077e+02 1.63e-01 8.72e+01  -1.0 1.52e+00    -  5.99e-01 3.90e-01h  1
   9  1.4303039e+02 7.55e-02 1.98e+02  -1.0 1.72e+00    -  1.00e+00 5.36e-01h  1
iter    objective    inf_pr   inf_du lg(mu)  ||d||  lg(rg) alpha_du alpha_pr  ls
  10  1.4698157e+02 6.03e-02 4.98e+02  -1.0 1.15e+00    -  1.00e+00 2.02e-01h  1
  11  1.4868214e+02 5.20e-02 1.88e+02  -1.0 4.29e-01    -  7.01e-02 1.39e-01h  1
  12  1.7139243e+02 2.59e-02 2.48e+01  -1.0 2.38e-01    -  1.00e+00 8.38e-01h  1
  13  1.7647056e+02 5.11e-15 1.59e+02  -1.0 5.47e-02    -  2.61e-01 1.00e+00h  1
  14  1.7636559e+02 7.33e-15 2.30e-01  -1.0 1.79e-02    -  1.00e+00 1.00e+00f  1
  15  1.7440802e+02 3.55e-15 6.66e+01  -1.7 2.90e-02    -  9.06e-01 7.16e-01f  1
  16  1.7329418e+02 4.79e-15 5.99e-01  -1.7 1.90e-02    -  1.00e+00 1.00e+00f  1
  17  1.7332548e+02 4.70e-15 2.48e-03  -1.7 3.79e-03    -  1.00e+00 1.00e+00f  1
  18  1.7260002e+02 5.38e-15 1.50e+01  -3.8 1.50e-02    -  6.38e-01 8.66e-01f  1
  19  1.7242569e+02 4.45e-05 2.55e+00  -3.8 5.18e-02    -  9.11e-01 1.00e+00f  1
iter    objective    inf_pr   inf_du lg(mu)  ||d||  lg(rg) alpha_du alpha_pr  ls
  20  1.7242541e+02 3.62e-05 5.05e+00  -3.8 1.39e-02    -  2.98e-01 3.59e-01h  1
  21  1.7242286e+02 1.03e-05 3.39e+00  -3.8 1.37e-02    -  6.84e-01 1.00e+00f  1
  22  1.7242189e+02 5.66e-15 1.02e-02  -3.8 5.21e-03    -  1.00e+00 1.00e+00h  1
  23  1.7242160e+02 6.38e-15 5.19e-04  -3.8 2.79e-03    -  1.00e+00 1.00e+00h  1
  24  1.7241420e+02 6.77e-07 1.91e-01  -5.7 3.35e-03    -  8.77e-01 9.69e-01f  1
  25  1.7241391e+02 1.21e-14 2.00e-05  -5.7 8.87e-04    -  1.00e+00 1.00e+00f  1
  26  1.7241391e+02 6.77e-15 4.12e-07  -5.7 1.28e-04    -  1.00e+00 1.00e+00h  1
  27  1.7241381e+02 1.46e-09 6.49e-05  -8.6 8.19e-05    -  9.97e-01 1.00e+00h  1
  28  1.7241381e+02 1.19e-14 1.25e-10  -8.6 2.12e-06    -  1.00e+00 1.00e+00h  1

Number of Iterations....: 28

                                   (scaled)                 (unscaled)
Objective...............:   1.5188423064921321e+02    1.7241381456914473e+02
Dual infeasibility......:   1.2491021875379645e-10    1.4179383338187208e-10
Constraint violation....:   1.1936632238196410e-14    1.1936632238196410e-14
Complementarity.........:   2.6363351911073193e-09    2.9926780735485307e-09
Overall NLP error.......:   2.6363351911073193e-09    2.9926780735485307e-09


Number of objective function evaluations             = 30
Number of objective gradient evaluations             = 29
Number of equality constraint evaluations            = 30
Number of inequality constraint evaluations          = 30
Number of equality constraint Jacobian evaluations   = 29
Number of inequality constraint Jacobian evaluations = 29
Number of Lagrangian Hessian evaluations             = 28
Total CPU secs in IPOPT (w/o function evaluations)   =      0.402
Total CPU secs in NLP function evaluations           =      0.213

EXIT: Optimal Solution Found.
Time to Solution........:1.3786351680755615
